
Gurobi 10.0.0 (linux64) logging started Wed Nov 16 15:40:44 2022

Set parameter LogFile to value "../results/k03_n200_d005/k03_n212_d007_2-FullIns_4_RP-MILO_log.txt"
Set parameter LazyConstraints to value 1
Gurobi Optimizer version 10.0.0 build v10.0.0rc2 (linux64)

CPU model: Intel(R) Xeon(R) CPU E5-2630 v4 @ 2.20GHz, instruction set [SSE2|AVX|AVX2]
Thread count: 20 physical cores, 40 logical processors, using up to 10 threads

Optimize a model with 4631670 rows, 7127 columns and 13895010 nonzeros
Model fingerprint: 0xf4a299f5
Coefficient statistics:
  Matrix range     [1e+00, 1e+00]
  Objective range  [1e+00, 1e+00]
  Bounds range     [1e+00, 1e+00]
  RHS range        [1e+00, 1e+00]
Presolve time: 5.75s
Presolved: 530730 rows, 7127 columns, 1592190 nonzeros

Concurrent LP optimizer: primal simplex, dual simplex, and barrier
Showing barrier log only...

Presolve time: 6.55s

Solved with primal simplex
Iteration    Objective       Primal Inf.    Dual Inf.      Time
       0    1.6210000e+03   0.000000e+00   0.000000e+00      9s

Solved in 0 iterations and 8.77 seconds (4.53 work units)
Optimal objective  1.621000000e+03
Gurobi Optimizer version 10.0.0 build v10.0.0rc2 (linux64)

CPU model: Intel(R) Xeon(R) CPU E5-2630 v4 @ 2.20GHz, instruction set [SSE2|AVX|AVX2]
Thread count: 20 physical cores, 40 logical processors, using up to 10 threads

Optimize a model with 4632616 rows, 7127 columns and 13900686 nonzeros
Coefficient statistics:
  Matrix range     [1e+00, 1e+00]
  Objective range  [1e+00, 1e+00]
  Bounds range     [1e+00, 1e+00]
  RHS range        [1e+00, 1e+00]
Iteration    Objective       Primal Inf.    Dual Inf.      Time
       0    1.6210000e+03   9.460000e+02   0.000000e+00      3s
      45    1.6210000e+03   0.000000e+00   0.000000e+00      3s

Solved in 45 iterations and 3.49 seconds (1.25 work units)
Optimal objective  1.621000000e+03
Gurobi Optimizer version 10.0.0 build v10.0.0rc2 (linux64)

CPU model: Intel(R) Xeon(R) CPU E5-2630 v4 @ 2.20GHz, instruction set [SSE2|AVX|AVX2]
Thread count: 20 physical cores, 40 logical processors, using up to 10 threads

Optimize a model with 4633436 rows, 7127 columns and 13905606 nonzeros
Coefficient statistics:
  Matrix range     [1e+00, 1e+00]
  Objective range  [1e+00, 1e+00]
  Bounds range     [1e+00, 1e+00]
  RHS range        [1e+00, 1e+00]
Iteration    Objective       Primal Inf.    Dual Inf.      Time
       0    1.6210000e+03   8.200000e+02   0.000000e+00      3s
     149    1.6210000e+03   0.000000e+00   0.000000e+00      4s

Solved in 149 iterations and 3.73 seconds (1.52 work units)
Optimal objective  1.621000000e+03
Gurobi Optimizer version 10.0.0 build v10.0.0rc2 (linux64)

CPU model: Intel(R) Xeon(R) CPU E5-2630 v4 @ 2.20GHz, instruction set [SSE2|AVX|AVX2]
Thread count: 20 physical cores, 40 logical processors, using up to 10 threads

Optimize a model with 4634256 rows, 7127 columns and 13910526 nonzeros
Coefficient statistics:
  Matrix range     [1e+00, 1e+00]
  Objective range  [1e+00, 1e+00]
  Bounds range     [1e+00, 1e+00]
  RHS range        [1e+00, 1e+00]
Iteration    Objective       Primal Inf.    Dual Inf.      Time
       0    1.6210000e+03   8.200000e+02   0.000000e+00      3s
     121    1.6210000e+03   0.000000e+00   0.000000e+00      4s

Solved in 121 iterations and 3.90 seconds (1.98 work units)
Optimal objective  1.621000000e+03
Gurobi Optimizer version 10.0.0 build v10.0.0rc2 (linux64)

CPU model: Intel(R) Xeon(R) CPU E5-2630 v4 @ 2.20GHz, instruction set [SSE2|AVX|AVX2]
Thread count: 20 physical cores, 40 logical processors, using up to 10 threads

Optimize a model with 4636397 rows, 7127 columns and 13923372 nonzeros
Coefficient statistics:
  Matrix range     [1e+00, 1e+00]
  Objective range  [1e+00, 1e+00]
  Bounds range     [1e+00, 1e+00]
  RHS range        [1e+00, 1e+00]
Iteration    Objective       Primal Inf.    Dual Inf.      Time
       0    1.6210000e+03   2.141000e+03   0.000000e+00      3s
     370    1.6210000e+03   0.000000e+00   0.000000e+00      5s

Solved in 370 iterations and 4.51 seconds (2.76 work units)
Optimal objective  1.621000000e+03
Gurobi Optimizer version 10.0.0 build v10.0.0rc2 (linux64)

CPU model: Intel(R) Xeon(R) CPU E5-2630 v4 @ 2.20GHz, instruction set [SSE2|AVX|AVX2]
Thread count: 20 physical cores, 40 logical processors, using up to 10 threads

Optimize a model with 4637563 rows, 7127 columns and 13930368 nonzeros
Coefficient statistics:
  Matrix range     [1e+00, 1e+00]
  Objective range  [1e+00, 1e+00]
  Bounds range     [1e+00, 1e+00]
  RHS range        [1e+00, 1e+00]
Iteration    Objective       Primal Inf.    Dual Inf.      Time
       0    1.6210000e+03   1.166000e+03   0.000000e+00      3s
    1000    1.6180000e+03   2.312124e+05   0.000000e+00     12s
    1600    1.6171111e+03   1.440926e+02   0.000000e+00     33s
    1700    1.6171111e+03   0.000000e+00   0.000000e+00     36s

Solved in 1700 iterations and 36.22 seconds (33.84 work units)
Optimal objective  1.617111111e+03
Gurobi Optimizer version 10.0.0 build v10.0.0rc2 (linux64)

CPU model: Intel(R) Xeon(R) CPU E5-2630 v4 @ 2.20GHz, instruction set [SSE2|AVX|AVX2]
Thread count: 20 physical cores, 40 logical processors, using up to 10 threads

Optimize a model with 4638889 rows, 7127 columns and 13938324 nonzeros
Coefficient statistics:
  Matrix range     [1e+00, 1e+00]
  Objective range  [1e+00, 1e+00]
  Bounds range     [1e+00, 1e+00]
  RHS range        [1e+00, 1e+00]
Iteration    Objective       Primal Inf.    Dual Inf.      Time
       0    1.6171111e+03   1.326000e+03   0.000000e+00      3s
     700    1.6171111e+03   1.871792e+05   0.000000e+00     11s
    1170    1.6171111e+03   3.574661e+04   0.000000e+00     18s
    1530    1.6171111e+03   2.995863e+03   0.000000e+00     24s
    1920    1.6171111e+03   6.033254e+03   0.000000e+00     30s
    2340    1.6171111e+03   2.020556e+02   0.000000e+00     35s
    2695    1.6171111e+03   0.000000e+00   0.000000e+00     40s

Solved in 2695 iterations and 42.26 seconds (99.73 work units)
Optimal objective  1.617111111e+03
Gurobi Optimizer version 10.0.0 build v10.0.0rc2 (linux64)

CPU model: Intel(R) Xeon(R) CPU E5-2630 v4 @ 2.20GHz, instruction set [SSE2|AVX|AVX2]
Thread count: 20 physical cores, 40 logical processors, using up to 10 threads

Optimize a model with 4641366 rows, 7127 columns and 13953186 nonzeros
Coefficient statistics:
  Matrix range     [1e+00, 1e+00]
  Objective range  [1e+00, 1e+00]
  Bounds range     [1e+00, 1e+00]
  RHS range        [1e+00, 1e+00]
Iteration    Objective       Primal Inf.    Dual Inf.      Time
       0    1.6171111e+03   2.471481e+03   0.000000e+00      2s
     860    1.6171111e+03   7.280548e+04   0.000000e+00     12s
    1470    1.6171111e+03   3.044214e+05   0.000000e+00     31s
    1780    1.6171111e+03   1.801161e+05   0.000000e+00     40s
    1990    1.6171111e+03   1.562474e+06   0.000000e+00     46s
    2200    1.6171111e+03   3.215240e+05   0.000000e+00     53s
    2410    1.6171110e+03   2.934622e+04   0.000000e+00     59s
    2620    1.6171110e+03   6.345967e+05   0.000000e+00     66s
    2810    1.6171041e+03   3.343226e+04   0.000000e+00     72s
    2990    1.6170999e+03   1.426170e+06   0.000000e+00     78s
    3170    1.6170999e+03   2.100617e+06   0.000000e+00     85s
    3360    1.6170999e+03   1.123005e+06   0.000000e+00     91s
    3590    1.6170999e+03   1.113842e+05   0.000000e+00     97s
    3770    1.6170999e+03   1.319363e+05   0.000000e+00    104s
    3970    1.6170999e+03   1.040667e+05   0.000000e+00    110s
    4180    1.6170768e+03   8.143293e+04   0.000000e+00    116s
    4400    1.6170740e+03   1.765854e+05   0.000000e+00    122s
    4590    1.6170740e+03   5.026333e+03   0.000000e+00    128s
    4810    1.6170740e+03   3.007204e+04   0.000000e+00    135s
    5010    1.6170740e+03   8.484454e+03   0.000000e+00    141s
    5230    1.6170740e+03   2.352569e+05   0.000000e+00    147s
    5450    1.6170740e+03   1.214457e+06   0.000000e+00    153s
    5650    1.6170740e+03   2.071482e+04   0.000000e+00    159s
    5850    1.6170740e+03   2.908963e+05   0.000000e+00    165s
    6080    1.6170740e+03   6.639830e+02   0.000000e+00    171s
    6350    1.6170740e+03   7.458188e+00   0.000000e+00    177s
    6426    1.6170741e+03   0.000000e+00   0.000000e+00    181s

Solved in 6426 iterations and 181.06 seconds (457.65 work units)
Optimal objective  1.617074074e+03
Gurobi Optimizer version 10.0.0 build v10.0.0rc2 (linux64)

CPU model: Intel(R) Xeon(R) CPU E5-2630 v4 @ 2.20GHz, instruction set [SSE2|AVX|AVX2]
Thread count: 20 physical cores, 40 logical processors, using up to 10 threads

Optimize a model with 4642940 rows, 7127 columns and 13962630 nonzeros
Coefficient statistics:
  Matrix range     [1e+00, 1e+00]
  Objective range  [1e+00, 1e+00]
  Bounds range     [1e+00, 1e+00]
  RHS range        [1e+00, 1e+00]
Iteration    Objective       Primal Inf.    Dual Inf.      Time
       0    1.6170741e+03   1.573176e+03   0.000000e+00      3s
     480    1.6170741e+03   1.344581e+05   0.000000e+00     10s
     740    1.6170741e+03   9.556358e+03   0.000000e+00     18s
     910    1.6170741e+03   3.063437e+05   0.000000e+00     26s
    1090    1.6170741e+03   2.773624e+04   0.000000e+00     33s
    1240    1.6170741e+03   5.287874e+03   0.000000e+00     39s
    1420    1.6170740e+03   1.912616e+04   0.000000e+00     45s
    1640    1.6170740e+03   4.106020e+02   0.000000e+00     51s
    1890    1.6170740e+03   6.431169e+01   0.000000e+00     57s
    2041    1.6170740e+03   0.000000e+00   0.000000e+00     61s

Solved in 2041 iterations and 62.22 seconds (162.65 work units)
Optimal objective  1.617074074e+03
Gurobi Optimizer version 10.0.0 build v10.0.0rc2 (linux64)

CPU model: Intel(R) Xeon(R) CPU E5-2630 v4 @ 2.20GHz, instruction set [SSE2|AVX|AVX2]
Thread count: 20 physical cores, 40 logical processors, using up to 10 threads

Optimize a model with 4643762 rows, 7127 columns and 13967562 nonzeros
Coefficient statistics:
  Matrix range     [1e+00, 1e+00]
  Objective range  [1e+00, 1e+00]
  Bounds range     [1e+00, 1e+00]
  RHS range        [1e+00, 1e+00]
Iteration    Objective       Primal Inf.    Dual Inf.      Time
       0    1.6170741e+03   8.218573e+02   0.000000e+00      3s
     500    1.6170741e+03   1.510379e+05   0.000000e+00     10s
     710    1.6170741e+03   1.523405e+04   0.000000e+00     16s
     830    1.6170741e+03   6.052333e+04   0.000000e+00     23s
     990    1.6170741e+03   6.571962e+02   0.000000e+00     30s
    1180    1.6170741e+03   0.000000e+00   0.000000e+00     37s

Solved in 1180 iterations and 38.97 seconds (95.52 work units)
Optimal objective  1.617074074e+03
Gurobi Optimizer version 10.0.0 build v10.0.0rc2 (linux64)

CPU model: Intel(R) Xeon(R) CPU E5-2630 v4 @ 2.20GHz, instruction set [SSE2|AVX|AVX2]
Thread count: 20 physical cores, 40 logical processors, using up to 10 threads

Optimize a model with 4644582 rows, 7127 columns and 13972482 nonzeros
Coefficient statistics:
  Matrix range     [1e+00, 1e+00]
  Objective range  [1e+00, 1e+00]
  Bounds range     [1e+00, 1e+00]
  RHS range        [1e+00, 1e+00]
Iteration    Objective       Primal Inf.    Dual Inf.      Time
       0    1.6170741e+03   8.200000e+02   0.000000e+00      3s
     360    1.6170741e+03   5.310417e+04   0.000000e+00     11s
     584    1.6170741e+03   0.000000e+00   0.000000e+00     18s

Solved in 584 iterations and 19.25 seconds (40.70 work units)
Optimal objective  1.617074074e+03
Gurobi Optimizer version 10.0.0 build v10.0.0rc2 (linux64)

CPU model: Intel(R) Xeon(R) CPU E5-2630 v4 @ 2.20GHz, instruction set [SSE2|AVX|AVX2]
Thread count: 20 physical cores, 40 logical processors, using up to 10 threads

Optimize a model with 4645901 rows, 7127 columns and 13980396 nonzeros
Coefficient statistics:
  Matrix range     [1e+00, 1e+00]
  Objective range  [1e+00, 1e+00]
  Bounds range     [1e+00, 1e+00]
  RHS range        [1e+00, 1e+00]
Iteration    Objective       Primal Inf.    Dual Inf.      Time
       0    1.6170741e+03   1.313803e+03   0.000000e+00      3s
     290    1.6170741e+03   3.734037e+04   0.000000e+00     10s
     730    1.6170741e+03   3.639371e+04   0.000000e+00     19s
     860    1.6170741e+03   2.694605e+05   0.000000e+00     31s
     980    1.6170741e+03   5.902950e+05   0.000000e+00     38s
    1090    1.6170741e+03   2.016543e+05   0.000000e+00     45s
    1220    1.6170741e+03   1.567944e+06   0.000000e+00     50s
    1350    1.6170741e+03   5.808698e+04   0.000000e+00     56s
    1490    1.6170741e+03   1.002607e+05   0.000000e+00     62s
    1620    1.6170740e+03   1.307156e+05   0.000000e+00     68s
    1750    1.6170740e+03   4.465694e+05   0.000000e+00     74s
    1890    1.6170740e+03   9.692459e+03   0.000000e+00     80s
    2030    1.6170740e+03   5.175004e+03   0.000000e+00     85s
    2180    1.6170740e+03   1.023135e+04   0.000000e+00     91s
    2310    1.6170740e+03   2.071369e+03   0.000000e+00     97s
    2450    1.6170740e+03   1.981041e+04   0.000000e+00    102s
    2600    1.6170714e+03   4.790976e+02   0.000000e+00    108s
    2760    1.6170714e+03   3.281202e+03   0.000000e+00    114s
    2950    1.6170714e+03   1.646136e+03   0.000000e+00    120s
    3160    1.6170666e+03   2.140845e+03   0.000000e+00    125s
    3330    1.6170666e+03   2.329506e+03   0.000000e+00    131s
    3490    1.6170666e+03   1.195548e+03   0.000000e+00    137s
    3640    1.6170666e+03   6.119190e+02   0.000000e+00    142s
    3800    1.6170666e+03   2.919887e+02   0.000000e+00    148s
    3960    1.6170666e+03   8.862330e+01   0.000000e+00    154s
    4023    1.6170667e+03   0.000000e+00   0.000000e+00    158s

Solved in 4023 iterations and 157.56 seconds (475.00 work units)
Optimal objective  1.617066667e+03
Gurobi Optimizer version 10.0.0 build v10.0.0rc2 (linux64)

CPU model: Intel(R) Xeon(R) CPU E5-2630 v4 @ 2.20GHz, instruction set [SSE2|AVX|AVX2]
Thread count: 20 physical cores, 40 logical processors, using up to 10 threads

Optimize a model with 4646730 rows, 7127 columns and 13985370 nonzeros
Coefficient statistics:
  Matrix range     [1e+00, 1e+00]
  Objective range  [1e+00, 1e+00]
  Bounds range     [1e+00, 1e+00]
  RHS range        [1e+00, 1e+00]
Iteration    Objective       Primal Inf.    Dual Inf.      Time
       0    1.6170667e+03   8.275805e+02   0.000000e+00      3s
     180    1.6170667e+03   1.566105e+03   0.000000e+00      9s
     300    1.6170667e+03   1.029334e+03   0.000000e+00     15s
     420    1.6170667e+03   3.144414e+03   0.000000e+00     21s
     570    1.6170667e+03   7.932835e+00   0.000000e+00     28s
     645    1.6170667e+03   0.000000e+00   0.000000e+00     33s

Solved in 645 iterations and 33.34 seconds (92.16 work units)
Optimal objective  1.617066667e+03
Gurobi Optimizer version 10.0.0 build v10.0.0rc2 (linux64)

CPU model: Intel(R) Xeon(R) CPU E5-2630 v4 @ 2.20GHz, instruction set [SSE2|AVX|AVX2]
Thread count: 20 physical cores, 40 logical processors, using up to 10 threads

Optimize a model with 4647550 rows, 7127 columns and 13990290 nonzeros
Coefficient statistics:
  Matrix range     [1e+00, 1e+00]
  Objective range  [1e+00, 1e+00]
  Bounds range     [1e+00, 1e+00]
  RHS range        [1e+00, 1e+00]
Iteration    Objective       Primal Inf.    Dual Inf.      Time
       0    1.6170667e+03   8.183194e+02   0.000000e+00      3s
     300    1.6170667e+03   1.845704e+04   0.000000e+00     11s
     450    1.6170667e+03   4.296575e+03   0.000000e+00     16s
     550    1.6170667e+03   5.321968e+03   0.000000e+00     22s
     650    1.6170667e+03   2.450705e+04   0.000000e+00     29s
     770    1.6170667e+03   7.062233e+02   0.000000e+00     36s
     930    1.6170667e+03   4.423188e+02   0.000000e+00     41s
    1080    1.6170667e+03   5.063424e+02   0.000000e+00     47s
    1240    1.6170667e+03   2.384351e+02   0.000000e+00     53s
    1387    1.6170667e+03   0.000000e+00   0.000000e+00     58s

Solved in 1387 iterations and 59.57 seconds (174.79 work units)
Optimal objective  1.617066667e+03
Gurobi Optimizer version 10.0.0 build v10.0.0rc2 (linux64)

CPU model: Intel(R) Xeon(R) CPU E5-2630 v4 @ 2.20GHz, instruction set [SSE2|AVX|AVX2]
Thread count: 20 physical cores, 40 logical processors, using up to 10 threads

Optimize a model with 4648370 rows, 7127 columns and 13995210 nonzeros
Coefficient statistics:
  Matrix range     [1e+00, 1e+00]
  Objective range  [1e+00, 1e+00]
  Bounds range     [1e+00, 1e+00]
  RHS range        [1e+00, 1e+00]
Iteration    Objective       Primal Inf.    Dual Inf.      Time
       0    1.6170667e+03   8.166514e+02   0.000000e+00      3s
     170    1.6170667e+03   8.326097e+04   0.000000e+00     10s
     310    1.6170667e+03   5.585831e+05   0.000000e+00     17s
     410    1.6170667e+03   2.688201e+07   0.000000e+00     28s
     510    1.6170666e+03   2.055965e+06   0.000000e+00     36s
     610    1.6170666e+03   1.664152e+05   0.000000e+00     44s
     710    1.6170666e+03   9.583348e+05   0.000000e+00     50s
     830    1.6170666e+03   5.530394e+04   0.000000e+00     55s
     950    1.6170666e+03   2.197378e+05   0.000000e+00     62s
    1050    1.6170666e+03   4.384113e+06   0.000000e+00     68s
    1160    1.6170666e+03   7.841618e+04   0.000000e+00     74s
    1260    1.6170666e+03   8.955229e+04   0.000000e+00     79s
    1360    1.6170666e+03   3.444231e+05   0.000000e+00     85s
    1460    1.6170666e+03   2.467316e+05   0.000000e+00     91s
    1560    1.6170666e+03   1.315476e+04   0.000000e+00     97s
    1660    1.6170666e+03   2.306794e+06   0.000000e+00    103s
    1760    1.6170666e+03   1.136270e+05   0.000000e+00    108s
    1860    1.6170666e+03   5.492296e+03   0.000000e+00    115s
    1970    1.6170666e+03   6.358990e+05   0.000000e+00    121s
    2070    1.6170666e+03   9.138329e+03   0.000000e+00    127s
    2170    1.6170666e+03   1.164974e+06   0.000000e+00    132s
    2270    1.6170666e+03   5.943055e+04   0.000000e+00    138s
    2370    1.6170666e+03   9.727063e+03   0.000000e+00    143s
    2470    1.6170666e+03   2.988067e+03   0.000000e+00    149s
    2570    1.6170666e+03   1.746691e+03   0.000000e+00    154s
    2670    1.6170666e+03   4.557798e+04   0.000000e+00    160s
    2790    1.6170666e+03   8.478761e+02   0.000000e+00    165s
    2910    1.6170666e+03   2.543811e+05   0.000000e+00    171s
    3020    1.6170666e+03   1.005737e+03   0.000000e+00    177s
    3120    1.6170666e+03   1.545334e+04   0.000000e+00    182s
    3230    1.6170666e+03   6.761110e+02   0.000000e+00    188s
    3360    1.6170666e+03   1.363950e+03   0.000000e+00    193s
    3480    1.6170666e+03   4.252194e+02   0.000000e+00    199s
    3590    1.6170666e+03   1.912269e+03   0.000000e+00    204s
    3700    1.6170666e+03   2.790836e+02   0.000000e+00    210s
    3820    1.6170666e+03   2.399184e+05   0.000000e+00    215s
    3940    1.6170666e+03   1.100347e+02   0.000000e+00    221s
    3990    1.6170667e+03   0.000000e+00   0.000000e+00    225s

Solved in 3990 iterations and 225.05 seconds (734.05 work units)
Optimal objective  1.617066667e+03
Gurobi Optimizer version 10.0.0 build v10.0.0rc2 (linux64)

CPU model: Intel(R) Xeon(R) CPU E5-2630 v4 @ 2.20GHz, instruction set [SSE2|AVX|AVX2]
Thread count: 20 physical cores, 40 logical processors, using up to 10 threads

Optimize a model with 4650263 rows, 7127 columns and 14006568 nonzeros
Coefficient statistics:
  Matrix range     [1e+00, 1e+00]
  Objective range  [1e+00, 1e+00]
  Bounds range     [1e+00, 1e+00]
  RHS range        [1e+00, 1e+00]
Iteration    Objective       Primal Inf.    Dual Inf.      Time
       0    1.6170667e+03   1.887316e+03   0.000000e+00      3s
     120    1.6170667e+03   8.133057e+05   0.000000e+00      9s
     240    1.6170667e+03   2.107491e+05   0.000000e+00     17s
     400    1.6170667e+03   6.312293e+07   0.000000e+00     31s
     580    1.6170666e+03   1.838959e+05   0.000000e+00     46s
     680    1.6170666e+03   5.595494e+05   0.000000e+00     52s
     780    1.6170666e+03   3.436941e+05   0.000000e+00     58s
     890    1.6170666e+03   5.243930e+06   0.000000e+00     64s
     990    1.6170666e+03   6.373912e+05   0.000000e+00     70s
    1090    1.6170666e+03   4.447544e+05   0.000000e+00     77s
    1190    1.6170666e+03   3.905102e+05   0.000000e+00     83s
    1290    1.6170666e+03   3.402067e+05   0.000000e+00     89s
    1390    1.6170666e+03   1.492105e+06   0.000000e+00     95s
    1490    1.6170666e+03   8.934011e+05   0.000000e+00    101s
    1680    1.6170666e+03   5.570905e+05   0.000000e+00    114s
    1880    1.6170666e+03   1.329004e+06   0.000000e+00    127s
    1980    1.6170666e+03   6.738314e+05   0.000000e+00    133s
    2080    1.6170666e+03   8.903878e+05   0.000000e+00    139s
    2180    1.6170666e+03   1.377838e+06   0.000000e+00    145s
    2280    1.6170666e+03   3.291296e+04   0.000000e+00    152s
    2380    1.6170666e+03   1.738003e+05   0.000000e+00    158s
    2480    1.6170666e+03   1.665602e+05   0.000000e+00    164s
    2580    1.6170666e+03   6.954752e+04   0.000000e+00    170s
    2680    1.6170666e+03   3.701796e+04   0.000000e+00    176s
    2780    1.6170666e+03   3.506528e+05   0.000000e+00    182s
    2880    1.6170666e+03   9.322955e+04   0.000000e+00    188s
    2980    1.6170666e+03   1.898228e+06   0.000000e+00    194s
    3160    1.6170666e+03   1.098561e+05   0.000000e+00    206s
    3260    1.6170666e+03   2.384287e+05   0.000000e+00    212s
    3360    1.6170666e+03   8.081068e+04   0.000000e+00    218s
    3550    1.6170666e+03   7.411968e+04   0.000000e+00    229s
    3740    1.6170666e+03   1.516183e+04   0.000000e+00    241s
    3840    1.6170666e+03   7.156447e+04   0.000000e+00    247s
    3940    1.6170666e+03   8.366715e+04   0.000000e+00    253s
    4120    1.6170666e+03   3.256101e+04   0.000000e+00    264s
    4220    1.6170666e+03   1.012610e+04   0.000000e+00    270s
    4410    1.6170666e+03   3.726246e+04   0.000000e+00    281s
    4510    1.6170666e+03   6.771576e+04   0.000000e+00    287s
    4710    1.6170666e+03   1.860428e+04   0.000000e+00    299s
    4810    1.6170666e+03   1.168948e+04   0.000000e+00    304s
    4920    1.6170666e+03   1.922246e+05   0.000000e+00    310s
    5020    1.6170666e+03   8.064343e+04   0.000000e+00    316s
    5120    1.6170666e+03   6.115707e+04   0.000000e+00    322s
    5220    1.6170666e+03   1.725273e+04   0.000000e+00    327s
    5320    1.6170666e+03   7.181898e+06   0.000000e+00    333s
    5420    1.6170666e+03   3.001040e+04   0.000000e+00    339s
    5520    1.6170666e+03   4.554173e+04   0.000000e+00    345s
    5700    1.6170666e+03   5.044975e+04   0.000000e+00    356s
    5890    1.6170666e+03   2.184050e+03   0.000000e+00    367s
    5990    1.6170666e+03   6.682479e+05   0.000000e+00    372s
    6090    1.6170666e+03   1.488955e+04   0.000000e+00    378s
    6190    1.6170666e+03   1.879008e+03   0.000000e+00    383s
    6290    1.6170666e+03   4.280381e+03   0.000000e+00    389s
    6390    1.6170666e+03   5.417184e+02   0.000000e+00    394s
    6490    1.6170666e+03   5.200099e+02   0.000000e+00    400s
    6590    1.6170666e+03   1.802821e+03   0.000000e+00    406s
    6690    1.6170666e+03   3.361401e+02   0.000000e+00    411s
    6880    1.6170666e+03   4.030168e+06   0.000000e+00    422s
    6990    1.6170666e+03   3.040245e+03   0.000000e+00    427s
    7090    1.6170666e+03   7.914131e+01   0.000000e+00    433s
    7190    1.6170666e+03   2.434593e+02   0.000000e+00    438s
    7290    1.6170666e+03   2.354814e+01   0.000000e+00    444s
    7400    1.6170666e+03   8.844439e+01   0.000000e+00    449s
    7510    1.6170666e+03   2.199766e+02   0.000000e+00    454s
    7630    1.6170666e+03   2.348664e+00   0.000000e+00    460s
    7654    1.6170667e+03   0.000000e+00   0.000000e+00    463s

Solved in 7654 iterations and 463.39 seconds (1620.87 work units)
Optimal objective  1.617066667e+03
Gurobi Optimizer version 10.0.0 build v10.0.0rc2 (linux64)

CPU model: Intel(R) Xeon(R) CPU E5-2630 v4 @ 2.20GHz, instruction set [SSE2|AVX|AVX2]
Thread count: 20 physical cores, 40 logical processors, using up to 10 threads

Optimize a model with 4651140 rows, 7127 columns and 14011830 nonzeros
Coefficient statistics:
  Matrix range     [1e+00, 1e+00]
  Objective range  [1e+00, 1e+00]
  Bounds range     [1e+00, 1e+00]
  RHS range        [1e+00, 1e+00]
Iteration    Objective       Primal Inf.    Dual Inf.      Time
       0    1.6170667e+03   8.664685e+02   0.000000e+00      3s
     140    1.6170667e+03   4.759410e+05   0.000000e+00     10s
     300    1.6170667e+03   4.896270e+06   0.000000e+00     26s
     460    1.6170667e+03   1.423100e+06   0.000000e+00     41s
     620    1.6170667e+03   2.412041e+05   0.000000e+00     56s
     790    1.6170666e+03   3.533588e+04   0.000000e+00     69s
     980    1.6170666e+03   3.981418e+05   0.000000e+00     80s
    1160    1.6170666e+03   2.029413e+04   0.000000e+00     92s
    1340    1.6170666e+03   2.325456e+05   0.000000e+00    104s
    1440    1.6170666e+03   3.774963e+05   0.000000e+00    110s
    1540    1.6170666e+03   1.019703e+07   0.000000e+00    117s
    1640    1.6170666e+03   2.430670e+06   0.000000e+00    123s
    1830    1.6170666e+03   1.308052e+05   0.000000e+00    135s
    2020    1.6170666e+03   3.344802e+05   0.000000e+00    146s
    2200    1.6170666e+03   9.383152e+04   0.000000e+00    157s
    2390    1.6170666e+03   1.617677e+04   0.000000e+00    168s
    2570    1.6170666e+03   6.173265e+03   0.000000e+00    179s
    2750    1.6170666e+03   5.241160e+03   0.000000e+00    189s
    2930    1.6170666e+03   3.988423e+03   0.000000e+00    199s
    3120    1.6170666e+03   7.634773e+04   0.000000e+00    209s
    3300    1.6170666e+03   1.404467e+03   0.000000e+00    220s
    3400    1.6170666e+03   2.141843e+04   0.000000e+00    226s
    3580    1.6170666e+03   4.465241e+03   0.000000e+00    241s
    3760    1.6170666e+03   2.880312e+03   0.000000e+00    255s
    3860    1.6170666e+03   2.947833e+02   0.000000e+00    261s
    3960    1.6170666e+03   1.274128e+03   0.000000e+00    268s
    4060    1.6170666e+03   2.162004e+02   0.000000e+00    274s
    4160    1.6170666e+03   1.226946e+02   0.000000e+00    281s
    4260    1.6170666e+03   1.604250e+02   0.000000e+00    287s
    4360    1.6170666e+03   2.309959e+02   0.000000e+00    294s
    4460    1.6170666e+03   1.338222e+02   0.000000e+00    301s
    4560    1.6170666e+03   1.173121e+02   0.000000e+00    308s
    4660    1.6170666e+03   6.298182e+01   0.000000e+00    315s
    4770    1.6170666e+03   4.673862e+01   0.000000e+00    321s
    4870    1.6170666e+03   8.602289e+00   0.000000e+00    327s
    4965    1.6170667e+03   0.000000e+00   0.000000e+00    335s

Solved in 4965 iterations and 335.16 seconds (1124.79 work units)
Optimal objective  1.617066667e+03
Gurobi Optimizer version 10.0.0 build v10.0.0rc2 (linux64)

CPU model: Intel(R) Xeon(R) CPU E5-2630 v4 @ 2.20GHz, instruction set [SSE2|AVX|AVX2]
Thread count: 20 physical cores, 40 logical processors, using up to 10 threads

Optimize a model with 4652085 rows, 7127 columns and 14017500 nonzeros
Coefficient statistics:
  Matrix range     [1e+00, 1e+00]
  Objective range  [1e+00, 1e+00]
  Bounds range     [1e+00, 1e+00]
  RHS range        [1e+00, 1e+00]
Iteration    Objective       Primal Inf.    Dual Inf.      Time
       0    1.6170667e+03   9.422368e+02   0.000000e+00      3s
     170    1.6170667e+03   8.172553e+05   0.000000e+00     19s
     320    1.6170666e+03   1.427362e+07   0.000000e+00     35s
     490    1.6170666e+03   2.879595e+06   0.000000e+00     51s
     670    1.6170666e+03   3.450491e+05   0.000000e+00     65s
     850    1.6170666e+03   2.426278e+06   0.000000e+00     79s
    1030    1.6170666e+03   4.132429e+05   0.000000e+00     92s
    1210    1.6170666e+03   3.052863e+06   0.000000e+00    106s
    1390    1.6170666e+03   2.697123e+06   0.000000e+00    121s
    1570    1.6170666e+03   2.663895e+06   0.000000e+00    135s
    1750    1.6170666e+03   1.985981e+05   0.000000e+00    149s
    1930    1.6170666e+03   9.583534e+04   0.000000e+00    163s
    2110    1.6170666e+03   1.826305e+05   0.000000e+00    177s
    2290    1.6170666e+03   7.883304e+04   0.000000e+00    190s
    2470    1.6170666e+03   8.328457e+04   0.000000e+00    204s
    2660    1.6170666e+03   1.846283e+04   0.000000e+00    217s
    2840    1.6170666e+03   3.722347e+04   0.000000e+00    230s
    3020    1.6170666e+03   5.905832e+06   0.000000e+00    245s
    3200    1.6170666e+03   1.699229e+04   0.000000e+00    258s
    3380    1.6170666e+03   1.192346e+04   0.000000e+00    271s
    3560    1.6170666e+03   7.703869e+04   0.000000e+00    284s
    3740    1.6170666e+03   1.134227e+03   0.000000e+00    297s
    3920    1.6170666e+03   1.462302e+04   0.000000e+00    310s
    4100    1.6170666e+03   1.956828e+04   0.000000e+00    322s
    4280    1.6170666e+03   7.156428e+03   0.000000e+00    335s
    4460    1.6170666e+03   1.379925e+03   0.000000e+00    348s
    4640    1.6170666e+03   1.475750e+04   0.000000e+00    360s
    4820    1.6170666e+03   1.378087e+03   0.000000e+00    372s
    5000    1.6170666e+03   1.354530e+03   0.000000e+00    385s
    5190    1.6170666e+03   1.157082e+03   0.000000e+00    398s
    5370    1.6170666e+03   6.869549e+02   0.000000e+00    410s
    5470    1.6170666e+03   7.604239e+02   0.000000e+00    416s
    5660    1.6170666e+03   1.038721e+02   0.000000e+00    429s
    5760    1.6170666e+03   3.580136e+01   0.000000e+00    435s
    5860    1.6170666e+03   3.927354e+01   0.000000e+00    442s
    5939    1.6170667e+03   0.000000e+00   0.000000e+00    448s

Solved in 5939 iterations and 448.44 seconds (1419.52 work units)
Optimal objective  1.617066667e+03
Gurobi Optimizer version 10.0.0 build v10.0.0rc2 (linux64)

CPU model: Intel(R) Xeon(R) CPU E5-2630 v4 @ 2.20GHz, instruction set [SSE2|AVX|AVX2]
Thread count: 20 physical cores, 40 logical processors, using up to 10 threads

Optimize a model with 4652905 rows, 7127 columns and 14022420 nonzeros
Coefficient statistics:
  Matrix range     [1e+00, 1e+00]
  Objective range  [1e+00, 1e+00]
  Bounds range     [1e+00, 1e+00]
  RHS range        [1e+00, 1e+00]
Iteration    Objective       Primal Inf.    Dual Inf.      Time
       0    1.6170667e+03   8.164400e+02   0.000000e+00      3s
     100    1.6170667e+03   3.838548e+05   0.000000e+00     12s
     220    1.6170667e+03   3.919959e+06   0.000000e+00     21s
     380    1.6170667e+03   7.995697e+06   0.000000e+00     41s
     530    1.6170667e+03   1.490060e+07   0.000000e+00     64s
     680    1.6170666e+03   7.197946e+05   0.000000e+00     85s
     860    1.6170666e+03   2.223062e+05   0.000000e+00    101s
    1040    1.6170666e+03   2.511974e+05   0.000000e+00    115s
    1210    1.6170666e+03   3.593771e+05   0.000000e+00    130s
    1390    1.6170666e+03   3.785933e+05   0.000000e+00    144s
    1570    1.6170666e+03   1.860061e+05   0.000000e+00    159s
    1750    1.6170666e+03   4.959085e+05   0.000000e+00    174s
    1920    1.6170666e+03   2.008568e+05   0.000000e+00    192s
    2100    1.6170666e+03   9.964400e+04   0.000000e+00    209s
    2280    1.6170666e+03   6.181661e+03   0.000000e+00    224s
    2460    1.6170666e+03   2.435683e+05   0.000000e+00    239s
    2640    1.6170666e+03   8.661958e+05   0.000000e+00    254s
    2820    1.6170666e+03   2.438541e+05   0.000000e+00    269s
    2980    1.6170666e+03   6.836685e+04   0.000000e+00    283s
    3160    1.6170666e+03   1.031783e+05   0.000000e+00    300s
    3340    1.6170666e+03   2.035864e+04   0.000000e+00    316s
    3520    1.6170666e+03   6.744864e+04   0.000000e+00    331s
    3700    1.6170666e+03   1.525126e+05   0.000000e+00    345s
    3870    1.6170666e+03   5.571171e+03   0.000000e+00    359s
    4050    1.6170666e+03   2.885950e+03   0.000000e+00    374s
    4230    1.6170666e+03   5.143812e+04   0.000000e+00    390s
    4400    1.6170666e+03   2.703138e+03   0.000000e+00    403s
    4570    1.6170666e+03   6.330792e+03   0.000000e+00    417s
    4740    1.6170666e+03   5.996301e+03   0.000000e+00    431s
    4920    1.6170666e+03   5.922845e+02   0.000000e+00    444s
    5100    1.6170666e+03   6.425006e+03   0.000000e+00    458s
    5280    1.6170666e+03   1.174065e+03   0.000000e+00    471s
    5460    1.6170666e+03   3.724016e+02   0.000000e+00    485s
    5640    1.6170666e+03   3.403462e+02   0.000000e+00    498s
    5830    1.6170666e+03   4.529470e+01   0.000000e+00    511s
    5940    1.6170666e+03   2.765475e+01   0.000000e+00    518s
    6040    1.6170666e+03   1.371022e-01   0.000000e+00    525s
    6092    1.6170667e+03   0.000000e+00   0.000000e+00    531s

Solved in 6092 iterations and 530.59 seconds (1520.04 work units)
Optimal objective  1.617066667e+03
Gurobi Optimizer version 10.0.0 build v10.0.0rc2 (linux64)

CPU model: Intel(R) Xeon(R) CPU E5-2630 v4 @ 2.20GHz, instruction set [SSE2|AVX|AVX2]
Thread count: 20 physical cores, 40 logical processors, using up to 10 threads

Optimize a model with 4653752 rows, 7127 columns and 14027502 nonzeros
Coefficient statistics:
  Matrix range     [1e+00, 1e+00]
  Objective range  [1e+00, 1e+00]
  Bounds range     [1e+00, 1e+00]
  RHS range        [1e+00, 1e+00]
Iteration    Objective       Primal Inf.    Dual Inf.      Time
       0    1.6170667e+03   8.087793e+02   0.000000e+00      3s
     170    1.6170667e+03   5.414333e+05   0.000000e+00     20s
     310    1.6170667e+03   3.129175e+07   0.000000e+00     38s
     470    1.6170666e+03   9.164817e+05   0.000000e+00     56s
     640    1.6170666e+03   1.718738e+07   0.000000e+00     71s
     800    1.6170666e+03   2.492629e+05   0.000000e+00     86s
     960    1.6170666e+03   8.186251e+05   0.000000e+00    100s
    1130    1.6170666e+03   6.272765e+05   0.000000e+00    115s
    1290    1.6170666e+03   6.540912e+05   0.000000e+00    130s
    1460    1.6170666e+03   1.734551e+06   0.000000e+00    146s
    1620    1.6170666e+03   8.357778e+05   0.000000e+00    160s
    1780    1.6170666e+03   2.041747e+05   0.000000e+00    174s
    1940    1.6170666e+03   3.129739e+06   0.000000e+00    189s
    2100    1.6170666e+03   4.037722e+05   0.000000e+00    203s
    2260    1.6170666e+03   5.655266e+04   0.000000e+00    217s
    2430    1.6170666e+03   5.015638e+05   0.000000e+00    231s
    2590    1.6170666e+03   1.001234e+05   0.000000e+00    245s
    2750    1.6170666e+03   9.023282e+05   0.000000e+00    260s
    2910    1.6170666e+03   1.259009e+05   0.000000e+00    273s
    3070    1.6170666e+03   1.404033e+04   0.000000e+00    287s
    3230    1.6170666e+03   7.260416e+05   0.000000e+00    301s
    3390    1.6170666e+03   7.291508e+05   0.000000e+00    315s
    3550    1.6170666e+03   3.504483e+07   0.000000e+00    329s
    3710    1.6170666e+03   1.292511e+04   0.000000e+00    344s
    3870    1.6170666e+03   3.230136e+06   0.000000e+00    358s
    4030    1.6170666e+03   8.099951e+06   0.000000e+00    372s
    4190    1.6170666e+03   4.262429e+04   0.000000e+00    386s
    4350    1.6170666e+03   9.201874e+04   0.000000e+00    400s
    4510    1.6170666e+03   1.256142e+05   0.000000e+00    415s
    4680    1.6170666e+03   9.160888e+04   0.000000e+00    429s
    4840    1.6170666e+03   5.769419e+04   0.000000e+00    443s
    5000    1.6170666e+03   6.638185e+05   0.000000e+00    456s
    5180    1.6170666e+03   7.291485e+05   0.000000e+00    471s
    5340    1.6170666e+03   2.998669e+03   0.000000e+00    484s
    5520    1.6170666e+03   2.210189e+04   0.000000e+00    498s
    5690    1.6170666e+03   2.265486e+04   0.000000e+00    513s
    5850    1.6170666e+03   4.879061e+03   0.000000e+00    526s
    6020    1.6170666e+03   4.715466e+03   0.000000e+00    540s
    6180    1.6170666e+03   8.740765e+03   0.000000e+00    553s
    6340    1.6170666e+03   1.128275e+06   0.000000e+00    566s
    6500    1.6170666e+03   8.088420e+03   0.000000e+00    580s
    6660    1.6170666e+03   2.403575e+04   0.000000e+00    593s
    6820    1.6170666e+03   2.338037e+04   0.000000e+00    606s
    6980    1.6170666e+03   7.037774e+03   0.000000e+00    619s
    7140    1.6170666e+03   1.427155e+03   0.000000e+00    631s
    7300    1.6170666e+03   1.794666e+03   0.000000e+00    644s
    7460    1.6170666e+03   8.762911e+02   0.000000e+00    657s
    7620    1.6170666e+03   1.923038e+03   0.000000e+00    669s
    7800    1.6170666e+03   3.328311e+02   0.000000e+00    683s
    7970    1.6170666e+03   8.628281e+03   0.000000e+00    696s
    8150    1.6170666e+03   3.879178e+02   0.000000e+00    709s
    8330    1.6170666e+03   3.055033e+02   0.000000e+00    722s
    8510    1.6170666e+03   1.978891e+04   0.000000e+00    736s
    8700    1.6170666e+03   5.229980e+01   0.000000e+00    749s
    8880    1.6170666e+03   5.453807e+01   0.000000e+00    762s
    8990    1.6170666e+03   2.422077e+01   0.000000e+00    769s
    9090    1.6170666e+03   2.903839e+01   0.000000e+00    776s
    9290    1.6170666e+03   1.131509e+00   0.000000e+00    790s
    9317    1.6170667e+03   0.000000e+00   0.000000e+00    795s

Solved in 9317 iterations and 794.60 seconds (2446.75 work units)
Optimal objective  1.617066667e+03
